r = [
0,13,22,4,22,19,6,5,23,20,6,15,12,18,25,12,35,23,10,5,21,12,30,20,18,4,0
];
p = [
0,11,18,17,9,22,26,17,20,9,3,19,18,20,1,19,7,21,4,29,15,18,1,9,28,3,0
];
e = [
0,7,12,2,11,19,14,1,1,17,6,13,4,12,17,3,13,15,6,18,2,13,15,5,10,14,0
];
d = [
0,235,247,380,358,488,454,430,430,398,497,295,464,202,306,324,468,348,344,276,453,266,508,260,304,452,509
];
d_bar = [
0,245,263,395,366,508,477,445,448,406,500,312,480,220,307,341,474,367,348,302,467,282,509,268,329,455,509
];
w = [
0,0.7,0.75,0.133333333,1.375,0.95,0.608695652,0.066666667,0.055555556,2.125,2,0.764705882,0.25,0.666666667,17,0.176470588,2.166666667,0.789473684,1.5,0.692307692,0.142857143,0.8125,15,0.625,0.4,4.666666667,0
];
